feasible solution found by trivial heuristic after 0.1 seconds, objective value 4.187600e+04
presolving:
(round 1, fast)       0 del vars, 1106 del conss, 0 add conss, 0 chg bounds, 0 chg sides, 0 chg coeffs, 0 upgd conss, 0 impls, 0 clqs
   (0.4s) running MILP presolver
   (0.4s) MILP presolver found nothing
(round 2, exhaustive) 0 del vars, 1106 del conss, 0 add conss, 0 chg bounds, 0 chg sides, 0 chg coeffs, 1500 upgd conss, 0 impls, 0 clqs
   (0.7s) probing: 51/1125 (4.5%) - 0 fixings, 0 aggregations, 0 implications, 0 bound changes
   (0.7s) probing aborted: 50/50 successive totally useless probings
   (1.3s) symmetry computation started: requiring (bin +, int -, cont +), (fixed: bin -, int +, cont -)
   (1.4s) no symmetry present
presolving (3 rounds: 3 fast, 2 medium, 2 exhaustive):
 0 deleted vars, 1106 deleted constraints, 0 added constraints, 0 tightened bounds, 0 added holes, 0 changed sides, 0 changed coefficients
 0 implications, 0 cliques
presolved problem has 1125 variables (1125 bin, 0 int, 0 impl, 0 cont) and 1500 constraints
   1500 constraints of type <logicor>
transformed objective value is always integral (scale: 1)
Presolving Time: 1.45
transformed 1/1 original solutions to the transformed problem space

 time | node  | left  |LP iter|LP it/n|mem/heur|mdpt |vars |cons |rows |cuts |sepa|confs|strbr|  dualbound   | primalbound  |  gap   | compl. 
p 1.7s|     1 |     0 |     0 |     - |   locks|   0 |1125 |1500 |1500 |   0 |  0 |   0 |   0 | 0.000000e+00 | 6.900000e+02 |    Inf | unknown
  1.8s|     1 |     0 |   408 |     - |   318M |   0 |1125 |1500 |1500 |   0 |  0 |   0 |   0 | 3.173271e+01 | 6.900000e+02 |2074.41%| unknown
r 1.8s|     1 |     0 |   408 |     - |simplero|   0 |1125 |1500 |1500 |   0 |  0 |   0 |   0 | 3.173271e+01 | 2.240000e+02 | 605.90%| unknown
r 1.8s|     1 |     0 |   408 |     - |rounding|   0 |1125 |1500 |1500 |   0 |  0 |   0 |   0 | 3.173271e+01 | 2.230000e+02 | 602.74%| unknown
r 1.8s|     1 |     0 |   408 |     - |shifting|   0 |1125 |1500 |1500 |   0 |  0 |   0 |   0 | 3.173271e+01 | 2.210000e+02 | 596.44%| unknown
i 1.8s|     1 |     0 |   408 |     - |  oneopt|   0 |1125 |1500 |1500 |   0 |  0 |   0 |   0 | 3.173271e+01 | 4.800000e+01 |  51.26%| unknown
  2.0s|     1 |     0 |   408 |     - |   318M |   0 |1125 |1500 |1500 |   0 |  2 |   0 |   0 | 3.173271e+01 | 4.800000e+01 |  51.26%| unknown
  2.0s|     1 |     0 |   408 |     - |   318M |   0 |1125 |1500 |1500 |   0 |  2 |   0 |   0 | 3.173271e+01 | 4.800000e+01 |  51.26%| unknown
L 5.2s|     1 |     0 |  1536 |     - |    rens|   0 |1125 |1500 |1500 |   0 |  4 |   0 |   0 | 3.173271e+01 | 4.400000e+01 |  38.66%| unknown
(run 1, node 1) restarting after 815 global fixings of integer variables

presolving:
(round 1, fast)       815 del vars, 0 del conss, 0 add conss, 0 chg bounds, 0 chg sides, 207701 chg coeffs, 0 upgd conss, 0 impls, 0 clqs
   (5.4s) running MILP presolver
   (5.4s) MILP presolver found nothing
presolving (2 rounds: 2 fast, 1 medium, 1 exhaustive):
 815 deleted vars, 0 deleted constraints, 0 added constraints, 0 tightened bounds, 0 added holes, 0 changed sides, 207701 changed coefficients
 0 implications, 0 cliques
presolved problem has 310 variables (310 bin, 0 int, 0 impl, 0 cont) and 1500 constraints
   1500 constraints of type <logicor>
transformed objective value is always integral (scale: 1)
Presolving Time: 1.61
transformed 98/100 original solutions to the transformed problem space

 time | node  | left  |LP iter|LP it/n|mem/heur|mdpt |vars |cons |rows |cuts |sepa|confs|strbr|  dualbound   | primalbound  |  gap   | compl. 
  5.5s|     1 |     0 |  1955 |     - |   316M |   0 | 310 |1500 |1500 |   0 |  0 |   0 |   0 | 3.173271e+01 | 4.400000e+01 |  38.66%| unknown
  5.5s|     1 |     0 |  1955 |     - |   316M |   0 | 310 |1500 |1500 |   0 |  0 |   0 |   0 | 3.173271e+01 | 4.400000e+01 |  38.66%| unknown
  5.6s|     1 |     0 |  1970 |     - |   317M |   0 | 310 |1500 |1501 |   1 |  1 |   0 |   0 | 3.179157e+01 | 4.400000e+01 |  38.40%| unknown
  5.6s|     1 |     0 |  1970 |     - |   317M |   0 | 310 |1500 |1501 |   1 |  1 |   0 |   0 | 3.179157e+01 | 4.400000e+01 |  38.40%| unknown
  5.6s|     1 |     0 |  1994 |     - |   317M |   0 | 310 |1500 |1502 |   2 |  2 |   0 |   0 | 3.184889e+01 | 4.400000e+01 |  38.15%| unknown
  5.7s|     1 |     0 |  2022 |     - |   317M |   0 | 310 |1500 |1503 |   3 |  3 |   0 |   0 | 3.190271e+01 | 4.400000e+01 |  37.92%| unknown
  5.7s|     1 |     0 |  2042 |     - |   317M |   0 | 310 |1500 |1504 |   4 |  4 |   0 |   0 | 3.196451e+01 | 4.400000e+01 |  37.65%| unknown
  5.8s|     1 |     0 |  2058 |     - |   319M |   0 | 310 |1500 |1505 |   5 |  5 |   0 |   0 | 3.198078e+01 | 4.400000e+01 |  37.58%| unknown
  5.8s|     1 |     0 |  2079 |     - |   319M |   0 | 310 |1500 |1506 |   6 |  6 |   0 |   0 | 3.200610e+01 | 4.400000e+01 |  37.47%| unknown
  5.9s|     1 |     0 |  2102 |     - |   320M |   0 | 310 |1500 |1507 |   7 |  7 |   0 |   0 | 3.201477e+01 | 4.400000e+01 |  37.44%| unknown
  5.9s|     1 |     0 |  2128 |     - |   322M |   0 | 310 |1500 |1508 |   8 |  8 |   0 |   0 | 3.203935e+01 | 4.400000e+01 |  37.33%| unknown
  6.0s|     1 |     0 |  2163 |     - |   323M |   0 | 310 |1500 |1509 |   9 |  9 |   0 |   0 | 3.206562e+01 | 4.400000e+01 |  37.22%| unknown
  6.1s|     1 |     0 |  2191 |     - |   326M |   0 | 310 |1500 |1510 |  10 | 10 |   0 |   0 | 3.207722e+01 | 4.400000e+01 |  37.17%| unknown
  6.1s|     1 |     0 |  2221 |     - |   326M |   0 | 310 |1500 |1511 |  11 | 11 |   0 |   0 | 3.208722e+01 | 4.400000e+01 |  37.13%| unknown
  6.1s|     1 |     0 |  2253 |     - |   326M |   0 | 310 |1500 |1512 |  12 | 12 |   0 |   0 | 3.209781e+01 | 4.400000e+01 |  37.08%| unknown
 time | node  | left  |LP iter|LP it/n|mem/heur|mdpt |vars |cons |rows |cuts |sepa|confs|strbr|  dualbound   | primalbound  |  gap   | compl. 
  6.1s|     1 |     0 |  2253 |     - |   326M |   0 | 310 |1500 |1512 |  12 | 12 |   0 |   0 | 3.209781e+01 | 4.400000e+01 |  37.08%| unknown
  6.1s|     1 |     0 |  2289 |     - |   326M |   0 | 310 |1500 |1513 |  13 | 13 |   0 |   0 | 3.212302e+01 | 4.400000e+01 |  36.97%| unknown
  6.1s|     1 |     0 |  2289 |     - |   326M |   0 | 310 |1500 |1513 |  13 | 13 |   0 |   0 | 3.212302e+01 | 4.400000e+01 |  36.97%| unknown
  6.1s|     1 |     0 |  2307 |     - |   326M |   0 | 310 |1500 |1514 |  14 | 14 |   0 |   0 | 3.212579e+01 | 4.400000e+01 |  36.96%| unknown
  6.1s|     1 |     0 |  2352 |     - |   326M |   0 | 310 |1500 |1515 |  15 | 15 |   0 |   0 | 3.213230e+01 | 4.400000e+01 |  36.93%| unknown
  6.2s|     1 |     0 |  2381 |     - |   327M |   0 | 310 |1500 |1516 |  16 | 16 |   0 |   0 | 3.213886e+01 | 4.400000e+01 |  36.91%| unknown
  6.2s|     1 |     0 |  2404 |     - |   327M |   0 | 310 |1500 |1517 |  17 | 17 |   0 |   0 | 3.214187e+01 | 4.400000e+01 |  36.89%| unknown
  6.2s|     1 |     0 |  2431 |     - |   327M |   0 | 310 |1500 |1518 |  18 | 18 |   0 |   0 | 3.214627e+01 | 4.400000e+01 |  36.87%| unknown
  6.2s|     1 |     0 |  2460 |     - |   327M |   0 | 310 |1500 |1519 |  19 | 19 |   0 |   0 | 3.214889e+01 | 4.400000e+01 |  36.86%| unknown
  6.2s|     1 |     0 |  2488 |     - |   327M |   0 | 310 |1500 |1520 |  20 | 20 |   0 |   0 | 3.215489e+01 | 4.400000e+01 |  36.84%| unknown
  6.2s|     1 |     0 |  2521 |     - |   327M |   0 | 310 |1500 |1521 |  21 | 21 |   0 |   0 | 3.215860e+01 | 4.400000e+01 |  36.82%| unknown
  6.3s|     1 |     0 |  2527 |     - |   327M |   0 | 310 |1500 |1522 |  22 | 22 |   0 |   0 | 3.216012e+01 | 4.400000e+01 |  36.82%| unknown
  6.3s|     1 |     0 |  2539 |     - |   327M |   0 | 310 |1500 |1523 |  23 | 23 |   0 |   0 | 3.216216e+01 | 4.400000e+01 |  36.81%| unknown
  6.3s|     1 |     0 |  2562 |     - |   327M |   0 | 310 |1500 |1524 |  24 | 24 |   0 |   0 | 3.216929e+01 | 4.400000e+01 |  36.78%| unknown
  6.3s|     1 |     0 |  2575 |     - |   327M |   0 | 310 |1500 |1525 |  25 | 25 |   0 |   0 | 3.217218e+01 | 4.400000e+01 |  36.76%| unknown
 time | node  | left  |LP iter|LP it/n|mem/heur|mdpt |vars |cons |rows |cuts |sepa|confs|strbr|  dualbound   | primalbound  |  gap   | compl. 
  6.3s|     1 |     0 |  2594 |     - |   327M |   0 | 310 |1500 |1526 |  26 | 26 |   0 |   0 | 3.217942e+01 | 4.400000e+01 |  36.73%| unknown
(run 2, node 1) restarting after 68 global fixings of integer variables

(restart) converted 26 cuts from the global cut pool into linear constraints

presolving:
(round 1, fast)       68 del vars, 0 del conss, 0 add conss, 0 chg bounds, 0 chg sides, 17309 chg coeffs, 0 upgd conss, 0 impls, 0 clqs
   (8.0s) running MILP presolver
   (8.0s) MILP presolver found nothing
(round 2, exhaustive) 68 del vars, 0 del conss, 0 add conss, 0 chg bounds, 0 chg sides, 17309 chg coeffs, 22 upgd conss, 0 impls, 0 clqs
presolving (3 rounds: 3 fast, 2 medium, 2 exhaustive):
 68 deleted vars, 0 deleted constraints, 0 added constraints, 0 tightened bounds, 0 added holes, 0 changed sides, 17309 changed coefficients
 0 implications, 0 cliques
presolved problem has 242 variables (242 bin, 0 int, 0 impl, 0 cont) and 1526 constraints
     22 constraints of type <knapsack>
      4 constraints of type <linear>
   1500 constraints of type <logicor>
transformed objective value is always integral (scale: 1)
Presolving Time: 1.69
transformed 99/100 original solutions to the transformed problem space

 time | node  | left  |LP iter|LP it/n|mem/heur|mdpt |vars |cons |rows |cuts |sepa|confs|strbr|  dualbound   | primalbound  |  gap   | compl. 
  8.1s|     1 |     0 |  3948 |     - |   324M |   0 | 242 |1526 |1526 |   0 |  0 |   0 |   0 | 3.217942e+01 | 4.400000e+01 |  36.73%| unknown
  8.2s|     1 |     0 |  3965 |     - |   324M |   0 | 242 |1526 |1527 |   1 |  1 |   0 |   0 | 3.219606e+01 | 4.400000e+01 |  36.66%| unknown
  8.3s|     1 |     0 |  4017 |     - |   324M |   0 | 242 |1526 |1528 |   2 |  2 |   0 |   0 | 3.222443e+01 | 4.400000e+01 |  36.54%| unknown
  8.4s|     1 |     0 |  4042 |     - |   325M |   0 | 242 |1526 |1529 |   3 |  3 |   0 |   0 | 3.223208e+01 | 4.400000e+01 |  36.51%| unknown
  8.5s|     1 |     0 |  4068 |     - |   325M |   0 | 242 |1526 |1530 |   4 |  4 |   0 |   0 | 3.223543e+01 | 4.400000e+01 |  36.50%| unknown
  8.6s|     1 |     0 |  4092 |     - |   325M |   0 | 242 |1526 |1531 |   5 |  5 |   0 |   0 | 3.223905e+01 | 4.400000e+01 |  36.48%| unknown
  8.7s|     1 |     0 |  4132 |     - |   325M |   0 | 242 |1526 |1532 |   6 |  6 |   0 |   0 | 3.224652e+01 | 4.400000e+01 |  36.45%| unknown
  8.8s|     1 |     0 |  4174 |     - |   325M |   0 | 242 |1526 |1533 |   7 |  7 |   0 |   0 | 3.225674e+01 | 4.400000e+01 |  36.41%| unknown
  8.9s|     1 |     0 |  4219 |     - |   325M |   0 | 242 |1526 |1534 |   8 |  8 |   0 |   0 | 3.226154e+01 | 4.400000e+01 |  36.39%| unknown
  9.0s|     1 |     0 |  4240 |     - |   327M |   0 | 242 |1526 |1535 |   9 |  9 |   0 |   0 | 3.226277e+01 | 4.400000e+01 |  36.38%| unknown
  9.1s|     1 |     0 |  4262 |     - |   329M |   0 | 242 |1526 |1536 |  10 | 10 |   0 |   0 | 3.226492e+01 | 4.400000e+01 |  36.37%| unknown
  9.1s|     1 |     0 |  4291 |     - |   329M |   0 | 242 |1526 |1537 |  11 | 11 |   0 |   0 | 3.226978e+01 | 4.400000e+01 |  36.35%| unknown
  9.2s|     1 |     0 |  4318 |     - |   329M |   0 | 242 |1526 |1538 |  12 | 12 |   0 |   0 | 3.227455e+01 | 4.400000e+01 |  36.33%| unknown
  9.2s|     1 |     0 |  4356 |     - |   329M |   0 | 242 |1526 |1539 |  13 | 13 |   0 |   0 | 3.227863e+01 | 4.400000e+01 |  36.31%| unknown
  9.3s|     1 |     0 |  4374 |     - |   330M |   0 | 242 |1526 |1540 |  14 | 14 |   0 |   0 | 3.228113e+01 | 4.400000e+01 |  36.30%| unknown
 time | node  | left  |LP iter|LP it/n|mem/heur|mdpt |vars |cons |rows |cuts |sepa|confs|strbr|  dualbound   | primalbound  |  gap   | compl. 
  9.3s|     1 |     0 |  4401 |     - |   330M |   0 | 242 |1526 |1535 |  15 | 15 |   0 |   0 | 3.228306e+01 | 4.400000e+01 |  36.29%| unknown
  9.4s|     1 |     0 |  4418 |     - |   330M |   0 | 242 |1526 |1536 |  16 | 16 |   0 |   0 | 3.228429e+01 | 4.400000e+01 |  36.29%| unknown
  9.4s|     1 |     0 |  4431 |     - |   330M |   0 | 242 |1526 |1537 |  17 | 17 |   0 |   0 | 3.228527e+01 | 4.400000e+01 |  36.29%| unknown
  9.5s|     1 |     0 |  4459 |     - |   330M |   0 | 242 |1526 |1538 |  18 | 18 |   0 |   0 | 3.228744e+01 | 4.400000e+01 |  36.28%| unknown
  9.5s|     1 |     0 |  4473 |     - |   330M |   0 | 242 |1526 |1539 |  19 | 19 |   0 |   0 | 3.228885e+01 | 4.400000e+01 |  36.27%| unknown
  9.6s|     1 |     0 |  4484 |     - |   330M |   0 | 242 |1526 |1540 |  20 | 20 |   0 |   0 | 3.228940e+01 | 4.400000e+01 |  36.27%| unknown
  9.6s|     1 |     0 |  4488 |     - |   330M |   0 | 242 |1526 |1536 |  21 | 21 |   0 |   0 | 3.228946e+01 | 4.400000e+01 |  36.27%| unknown
 12.8s|     1 |     2 |  5644 |     - |   330M |   0 | 242 |1526 |1536 |  21 | 23 |   0 |  35 | 3.281821e+01 | 4.400000e+01 |  34.07%| unknown
 17.8s|   100 |    37 | 16910 | 144.1 |   334M |  11 | 242 |1680 |1527 |  43 |  1 | 154 | 399 | 3.515819e+01 | 4.400000e+01 |  25.15%|  17.09%
 20.1s|   200 |    61 | 24193 | 108.6 |   344M |  13 | 242 |1720 |1532 |  77 |  0 | 194 | 491 | 3.544071e+01 | 4.400000e+01 |  24.15%|  20.52%
 22.5s|   300 |    81 | 32128 |  98.9 |   344M |  14 | 242 |1762 |1532 | 118 |  1 | 236 | 550 | 3.590863e+01 | 4.400000e+01 |  22.53%|  24.77%
 25.0s|   400 |   145 | 46687 | 110.5 |   344M |  15 | 242 |1803 |1527 | 160 |  0 | 279 | 586 | 3.590863e+01 | 4.400000e+01 |  22.53%|  25.47%
 28.2s|   500 |   225 | 64501 | 124.0 |   344M |  17 | 242 |1848 |1527 | 233 |  2 | 326 | 607 | 3.679488e+01 | 4.400000e+01 |  19.58%|  32.30%
 29.9s|   600 |   285 | 74301 | 119.7 |   345M |  19 | 242 |1887 |1527 | 264 |  1 | 372 | 621 | 3.759992e+01 | 4.400000e+01 |  17.02%|  35.83%
 32.2s|   700 |   351 | 85183 | 118.2 |   346M |  19 | 242 |1920 |1527 | 317 |  1 | 412 | 637 | 3.832481e+01 | 4.400000e+01 |  14.81%|  40.81%
 time | node  | left  |LP iter|LP it/n|mem/heur|mdpt |vars |cons |rows |cuts |sepa|confs|strbr|  dualbound   | primalbound  |  gap   | compl. 
 33.9s|   800 |   393 | 93547 | 113.8 |   347M |  19 | 242 |1950 |1529 | 358 |  0 | 445 | 650 | 3.854110e+01 | 4.400000e+01 |  14.16%|  41.78%
 35.2s|   900 |   427 |100879 | 109.3 |   347M |  19 | 242 |1968 |1527 | 380 |  0 | 469 | 662 | 3.874144e+01 | 4.400000e+01 |  13.57%|  43.50%
 36.8s|  1000 |   455 |108110 | 105.6 |   350M |  20 | 242 |1985 |1531 | 437 |  0 | 489 | 673 | 3.881219e+01 | 4.400000e+01 |  13.37%|  44.96%
 38.4s|  1100 |   465 |115712 | 103.0 |   350M |  20 | 242 |1995 |1533 | 486 |  0 | 500 | 685 | 3.902428e+01 | 4.400000e+01 |  12.75%|  46.65%
 39.9s|  1200 |   487 |123760 | 101.1 |   352M |  20 | 242 |2015 |1527 | 523 |  0 | 523 | 701 | 3.920225e+01 | 4.400000e+01 |  12.24%|  47.97%
 40.9s|  1300 |   497 |130153 |  98.2 |   354M |  20 | 242 |2025 |1533 | 541 |  1 | 534 | 711 | 3.920225e+01 | 4.400000e+01 |  12.24%|  48.63%
 42.4s|  1400 |   515 |137068 |  96.2 |   355M |  20 | 242 |2037 |1536 | 582 |  6 | 550 | 718 | 3.920740e+01 | 4.400000e+01 |  12.22%|  49.30%
 43.5s|  1500 |   527 |143605 |  94.1 |   355M |  21 | 242 |2061 |1533 | 606 |  2 | 574 | 736 | 3.935366e+01 | 4.400000e+01 |  11.81%|  50.73%
 45.3s|  1600 |   545 |151307 |  93.0 |   355M |  21 | 242 |2077 |1537 | 667 |  6 | 593 | 747 | 3.941402e+01 | 4.400000e+01 |  11.64%|  51.67%
 46.7s|  1700 |   547 |157905 |  91.4 |   359M |  21 | 242 |2082 |1527 | 711 |  1 | 600 | 753 | 3.945521e+01 | 4.400000e+01 |  11.52%|  52.86%
 48.0s|  1800 |   551 |164270 |  89.9 |   361M |  21 | 242 |2090 |1533 | 757 |  1 | 611 | 760 | 3.948483e+01 | 4.400000e+01 |  11.44%|  53.63%
 49.0s|  1900 |   551 |169647 |  88.0 |   361M |  21 | 242 |2092 |1532 | 791 |  0 | 614 | 764 | 3.958787e+01 | 4.400000e+01 |  11.15%|  54.66%
 50.3s|  2000 |   559 |174937 |  86.2 |   361M |  21 | 242 |2096 |1532 | 833 |  1 | 621 | 772 | 3.982287e+01 | 4.400000e+01 |  10.49%|  56.72%
 51.0s|  2100 |   559 |179481 |  84.3 |   361M |  22 | 242 |2099 |1532 | 845 |  0 | 628 | 779 | 3.982377e+01 | 4.400000e+01 |  10.49%|  57.00%
 52.2s|  2200 |   567 |185371 |  83.2 |   361M |  22 | 242 |2107 |1533 | 878 |  0 | 637 | 784 | 3.991744e+01 | 4.400000e+01 |  10.23%|  58.16%
 time | node  | left  |LP iter|LP it/n|mem/heur|mdpt |vars |cons |rows |cuts |sepa|confs|strbr|  dualbound   | primalbound  |  gap   | compl. 
 53.4s|  2300 |   569 |190615 |  81.8 |   363M |  22 | 242 |2112 |1527 | 917 |  1 | 642 | 787 | 4.002253e+01 | 4.400000e+01 |   9.94%|  59.50%
 54.6s|  2400 |   565 |196987 |  81.1 |   366M |  22 | 242 |2117 |1532 | 955 |  0 | 649 | 791 | 4.006242e+01 | 4.400000e+01 |   9.83%|  61.19%
 55.4s|  2500 |   567 |201985 |  79.8 |   367M |  22 | 242 |2120 |1531 | 976 |  0 | 656 | 799 | 4.009344e+01 | 4.400000e+01 |   9.74%|  62.12%
 56.3s|  2600 |   545 |206940 |  78.7 |   367M |  23 | 242 |2128 |1531 | 994 |  0 | 667 | 808 | 4.014595e+01 | 4.400000e+01 |   9.60%|  63.47%
 57.3s|  2700 |   545 |212167 |  77.7 |   367M |  23 | 242 |2128 |1532 |1024 |  0 | 668 | 809 | 4.024194e+01 | 4.400000e+01 |   9.34%|  64.12%
 57.9s|  2800 |   541 |216353 |  76.4 |   367M |  23 | 242 |2128 |1533 |1033 |  1 | 676 | 813 | 4.028559e+01 | 4.400000e+01 |   9.22%|  64.82%
 58.7s|  2900 |   533 |221025 |  75.4 |   367M |  23 | 242 |2134 |1532 |1053 |  1 | 684 | 816 | 4.031998e+01 | 4.400000e+01 |   9.13%|  65.19%
 59.7s|  3000 |   523 |225866 |  74.5 |   368M |  23 | 242 |2132 |1532 |1079 |  1 | 687 | 818 | 4.036751e+01 | 4.400000e+01 |   9.00%|  66.17%
 60.5s|  3100 |   517 |230664 |  73.6 |   368M |  23 | 242 |2137 |1527 |1090 |  0 | 699 | 824 | 4.039400e+01 | 4.400000e+01 |   8.93%|  66.61%
 61.2s|  3200 |   509 |234960 |  72.7 |   368M |  23 | 242 |2145 |1531 |1103 |  1 | 710 | 833 | 4.042049e+01 | 4.400000e+01 |   8.86%|  67.63%
 61.9s|  3300 |   507 |239321 |  71.8 |   368M |  23 | 242 |2151 |1532 |1118 |  0 | 717 | 837 | 4.053116e+01 | 4.400000e+01 |   8.56%|  68.35%
 62.7s|  3400 |   495 |244068 |  71.1 |   368M |  23 | 242 |2156 |1532 |1137 |  1 | 725 | 842 | 4.056802e+01 | 4.400000e+01 |   8.46%|  69.21%
 63.3s|  3500 |   485 |247650 |  70.1 |   368M |  23 | 242 |2156 |1529 |1147 |  1 | 729 | 846 | 4.072556e+01 | 4.400000e+01 |   8.04%|  70.69%
 64.0s|  3600 |   473 |251517 |  69.2 |   368M |  23 | 242 |2158 |1527 |1158 |  1 | 734 | 853 | 4.084395e+01 | 4.400000e+01 |   7.73%|  71.74%
 64.6s|  3700 |   443 |254926 |  68.2 |   369M |  23 | 242 |2154 |1528 |1174 |  0 | 736 | 856 | 4.087007e+01 | 4.400000e+01 |   7.66%|  72.82%
 time | node  | left  |LP iter|LP it/n|mem/heur|mdpt |vars |cons |rows |cuts |sepa|confs|strbr|  dualbound   | primalbound  |  gap   | compl. 
 65.2s|  3800 |   419 |258533 |  67.4 |   369M |  23 | 242 |2154 |1533 |1184 |  1 | 743 | 863 | 4.096816e+01 | 4.400000e+01 |   7.40%|  74.11%
 65.8s|  3900 |   393 |262451 |  66.7 |   369M |  23 | 242 |2148 |1540 |1192 |  0 | 745 | 866 | 4.114052e+01 | 4.400000e+01 |   6.95%|  76.39%
 66.2s|  4000 |   365 |265731 |  65.8 |   369M |  23 | 242 |2148 |1533 |1193 |  1 | 750 | 872 | 4.119364e+01 | 4.400000e+01 |   6.81%|  77.61%
 66.8s|  4100 |   343 |269123 |  65.0 |   369M |  23 | 242 |2139 |1532 |1202 |  0 | 757 | 877 | 4.125194e+01 | 4.400000e+01 |   6.66%|  78.24%
 67.3s|  4200 |   317 |272416 |  64.3 |   369M |  23 | 242 |2130 |1533 |1212 |  0 | 759 | 879 | 4.127472e+01 | 4.400000e+01 |   6.60%|  79.02%
 67.9s|  4300 |   291 |275467 |  63.5 |   369M |  23 | 242 |2129 |1532 |1218 |  0 | 762 | 882 | 4.134922e+01 | 4.400000e+01 |   6.41%|  79.96%
 68.4s|  4400 |   266 |278065 |  62.6 |   369M |  23 | 242 |2131 |1538 |1228 |  1 | 765 | 883 | 4.138950e+01 | 4.400000e+01 |   6.31%|  80.63%
 68.9s|  4500 |   230 |281097 |  61.9 |   369M |  23 | 242 |2131 |1548 |1239 |  0 | 766 | 885 | 4.148086e+01 | 4.400000e+01 |   6.07%|  82.03%
 69.3s|  4600 |   186 |283963 |  61.2 |   369M |  23 | 242 |2130 |1533 |1243 |  1 | 768 | 888 | 4.182245e+01 | 4.400000e+01 |   5.21%|  84.96%
 69.7s|  4700 |   124 |286141 |  60.4 |   369M |  23 | 242 |2130 |1554 |1245 |  0 | 773 | 893 | 4.204651e+01 | 4.400000e+01 |   4.65%|  86.50%
 70.1s|  4800 |    52 |287821 |  59.5 |   369M |  23 | 242 |2123 |1541 |1248 |  0 | 774 | 896 | 4.222486e+01 | 4.400000e+01 |   4.20%|  88.85%

SCIP Status        : problem is solved [optimal solution found]
Solving Time (sec) : 70.23
Solving Nodes      : 4859 (total of 4861 nodes in 3 runs)
Primal Bound       : +4.40000000000000e+01 (553 solutions)
Dual Bound         : +4.40000000000000e+01
Gap                : 0.00 %
Solve Status: optimal
Solve Time: 70.24 seconds
